\* Problem: Unknown *\

Minimize
 obj: 0 Mnadhc

Subject To
 R("R_ATPS4r"): - MlacDc - 4 Mhb + 3 Mru5pDc + Makgb + Mg3pc - Micitc
 = 0
 R("R_PGI"): - Moaac + Mpyre = 0
 R("R_LDH_D_Rev"): - Mpie - Mnadc + Mg6pc + Mhc - Mru5pDc = 0
 R("R_D_LACt2"): - Mq8c + Mhc - Mhb + Mru5pDc = 0
 R("MglcDb_Transp"): + Msuccoac = 0
 R("R_PDH"): - Mpie + Mnadc - Mg6pc - Msuccb + Mfadc + Mfore = 0
 R("Mace_Transp"): + 2 Madpc = 0
 R("R_TKT2"): - Metohe + Mcitc + Mpyre - Mxu5pDc = 0
 R("R_GND"): + Maccoac + Ms7pc - Mpic + Mfadc - Mdhapc = 0
 R("R_PGK"): - Mg3pc + Micitc - Mnadphc + Mnadhc = 0
 R("R_SUCCt2b"): + Mco2c - Mco2b + Mhb - Mru5pDc = 0
 R("R_RPE_Rev"): - Metohe + Maccoac = 0
 R("R_RPI_Rev"): - Maccoac + Metohb = 0
 R("R_PIt_Rev"): - MlacDb + MlacDc = 0
 R("R_LDH_D"): + Mpie + Mnadc - Mg6pc - Mhc + Mru5pDc = 0
 R("R_ICL"): + Mco2b - MglcDb + Mpyrb = 0
 R("Mo2e_Transp"): + 2 Mo2b = 0
 R("R_PPC"): + MlacDc - Mo2e + Mo2c + Mru5pDc - Makgb - Mfadc = 0
 R("R_SUCD1i"): - Mco2b + Macb + M3pgc - Msuccc = 0
 R("R_TKT1_Rev"): + Metohe - Mco2e + Metohb - Mcitc = 0
 R("R_ADHEr_Rev"): + 2 Mnadc - 2 Mg6pc + 2 Mru5pDc - Mf6pc - Msuccb
 + Mfore = 0
 R("R_FUM_Rev"): - Mfume + Makgb + Macb = 0
 R("R_SUCD4_Rev"): - M13dpgc + Mactpc + M3pgc - Msuccc = 0
 R("R_CO2t_Rev"): + Mh2oc - Mfadc = 0
 R("R_EX_succ_e_"): - Mco2c + Msucce = 0
 R("R_SUCOAS"): + M2pgc - Mco2b + MlacDc - Msuccb - Mg3pc + Micitc = 0
 R("R_PGM"): + Mnadphc - Mampc = 0
 R("R_FBA_Rev"): - Mcitc + MglcDe - Mhe = 0
 R("Metohe_Transp"): + 2 Mr5pc = 0
 R("R_MDH_Rev"): - Mo2c - Mnadc + Mg6pc + Mfume - Mru5pDc = 0
 R("Metohb_Transp"): + Mfdpc = 0
 R("R_ACONT_Rev"): - MglcDb + M6pgcc = 0
 R("R_D_LACt2_Rev"): + Mq8c - Mhc + Mhb - Mru5pDc = 0
 R("R_EX_for_e_"): - Mpyrc + Mh2ob = 0
 R("R_ACt2r_Rev"): + Mhb - Mru5pDc + Madpc - Mfumc = 0
 R("R_EX_akg_e_"): - Mforc + Me4pc = 0
 R("R_EX_fum_e_"): - Mh2oe + Macc = 0
 R("Mh2oe_Transp"): + 2 Makge = 0
 R("R_EX_o2_e__Rev"): + Mo2b - Mpepc = 0
 R("R_MALS"): + Mfume + Mru5pDc - Makgb - Mpyrb + Msuccb - Mfore = 0
 R("R_EX_h_e__Rev"): + Mhb - Mforb = 0
 R("R_EX_lac_D_e__Rev"): + Mq8c - Mfadh2c = 0
 R("R_ME2"): + Mpie + Ms7pc - Mpic - Mfume + Mfadc = 0
 R("Mh2ob_Transp"): + Makgc = 0
 R("R_FORt_Rev"): + Mpyrc - Mace = 0
 R("R_EX_pi_e_"): - MlacDb + Matpc = 0
 R("Msuccb_Transp"): + Msucce = 0
 R("R_ACt2r"): - Mhb + Mru5pDc - Madpc + Mfumc = 0
 R("R_SUCD4"): + M13dpgc - Mactpc - M3pgc + Msuccc = 0
 R("R_EX_ac_e__Rev"): + Madpc - Mfumb = 0
 R("R_O2t_Rev"): + Mo2b - M6pglc = 0
 R("R_Biomass_Ecoli_core_N__w_GAM_"): - 0.8977 Metohb - 2.8328 Mpie
 + 55.703 MlacDc - 0.5191 Mo2e - 1.7867 Mo2c - 18.225 Ms7pc
 + 18.225 Mpic + 3.547 Mnadc - 3.547 Mg6pc + 41.025 Mru5pDc
 - 55.703 Makgb - 0.205 Moaac - 0.129 Mcitc - 0.0709 Mpyre
 - 0.361 Mxu5pDc + 3.7478 Msuccb - 55.703 Mg3pc - 1.0789 MmalLc
 + 55.703 Micitc - 3.7478 Mfore - 1.496 Mnadphc = 0
 R("R_PPS"): - Mpie + MlacDc + Mo2e + 2 Mru5pDc - Makgb - Mg3pc + Mnadpc
 = 0
 R("R_ADK1"): - Mg3pc - Mnadpc + 2 Micitc = 0
 R("R_PGM_Rev"): - Mnadphc + Mampc = 0
 R("Mco2b_Transp"): + Mq8h2c = 0
 R("R_PPCK"): + Mo2e - Mo2c + Mfadc - Mg3pc + Micitc = 0
 R("R_TKT1"): - Metohe + Mco2e - Metohb + Mcitc = 0
 R("Mco2e_Transp"): + 2 Mh2oc = 0
 R("R_CS"): - Mo2c + Mru5pDc - Makgb + Msuccb + M6pgcc - Mfore = 0
 R("R_NADTRHD"): - Ms7pc + Mpic + Mnadc - Mg6pc = 0
 R("MlacDe_Transp"): + 2 Mq8c = 0
 R("Mpyrb_Transp"): + MlacDe = 0
 R("R_PYRt2r"): - Mpib + Mpie - Mhb + Mru5pDc = 0
 R("R_EX_pyr_e_"): - Mpib + MlacDe = 0
 R("R_ATPS4r_Rev"): + MlacDc + 4 Mhb - 3 Mru5pDc - Makgb - Mg3pc
 + Micitc = 0
 R("R_EX_pyr_e__Rev"): + Mpib - MlacDe = 0
 R("R_EX_glc_e__Rev"): + Mcoac - Msuccoac = 0
 R("Mforb_Transp"): + Mh2ob = 0
 R("R_ACONT"): + MglcDb - M6pgcc = 0
 R("Macb_Transp"): + Mfumb = 0
 R("R_FRD"): + Mco2b - Macb - M3pgc + Msuccc = 0
 R("Mfumb_Transp"): + Macc = 0
 R("R_PGI_Rev"): + Moaac - Mpyre = 0
 R("R_ACKr_Rev"): + Mg3pc - Micitc - Mglxc + Mfumc = 0
 R("R_GAPD"): - MlacDc + Mnadc - Mg6pc + Mru5pDc - Mcitc + Mnadhc = 0
 R("R_NADH11"): + M13dpgc - Mactpc - Mnadc + Mg6pc + 2 Mhb - 3 Mru5pDc
 = 0
 R("R_ADK1_Rev"): + Mg3pc + Mnadpc - 2 Micitc = 0
 R("R_ACKr"): - Mg3pc + Micitc + Mglxc - Mfumc = 0
 R("R_G6PDH2r"): + Ms7pc - Mpic + Mru5pDc - Moaac + Metohc = 0
 R("R_ETOHt2r"): - Mhb + Mru5pDc - Mr5pc + Mf6pc = 0
 R("R_EX_akg_e__Rev"): + Mforc - Me4pc = 0
 R("R_FORt"): - Mpyrc + Mace = 0
 R("R_RPI"): + Maccoac - Metohb = 0
 R("R_RPE"): + Metohe - Maccoac = 0
 R("R_ENO_Rev"): - Mo2e - Makgb + Mampc = 0
 R("Mo2b_Transp"): + Mpepc = 0
 R("R_GAPD_Rev"): + MlacDc - Mnadc + Mg6pc - Mru5pDc + Mcitc - Mnadhc
 = 0
 R("R_EX_co2_e_"): - Mh2oc + Mq8h2c = 0
 R("MglcDe_Transp"): + 2 Mcoac = 0
 R("R_G6PDH2r_Rev"): - Ms7pc + Mpic - Mru5pDc + Moaac - Metohc = 0
 R("R_EX_ac_e_"): - Madpc + Mfumb = 0
 R("R_PFK"): + Mru5pDc + MglcDe - Mpyre - Mg3pc + Micitc = 0
 R("R_SUCCt2_2"): - Mco2c + Mco2b - 2 Mhb + 2 Mru5pDc = 0
 R("Mpib_Transp"): + Matpc = 0
 R("R_PIt"): + MlacDb - MlacDc = 0
 R("R_PYK"): + Mpie - Mo2e - Mru5pDc + Mg3pc - Micitc = 0
 R("R_EX_succ_e__Rev"): + Mco2c - Msucce = 0
 R("Mpie_Transp"): + 2 MlacDb = 0
 R("R_ETOHt2r_Rev"): + Mhb - Mru5pDc + Mr5pc - Mf6pc = 0
 R("R_EX_h_e_"): - Mhb + Mforb = 0
 R("R_ICDHyr"): + Ms7pc - Mpic - MglcDb + Mfadc + MmalLc = 0
 R("R_AKGt2r"): - Mhb + Mru5pDc - Mforc + MmalLc = 0
 R("R_PTAr_Rev"): + MlacDc - Msuccb - Mglxc + Mfore = 0
 R("R_EX_for_e__Rev"): + Mpyrc - Mh2ob = 0
 R("R_SUCOAS_Rev"): - M2pgc + Mco2b - MlacDc + Msuccb + Mg3pc - Micitc
 = 0
 R("R_PTAr"): - MlacDc + Msuccb + Mglxc - Mfore = 0
 R("R_EX_o2_e_"): - Mo2b + Mpepc = 0
 R("R_EX_etoh_e__Rev"): + Mr5pc - Mfdpc = 0
 R("R_EX_h2o_e__Rev"): + Makge - Makgc = 0
 R("Mpyre_Transp"): + 2 Mpib = 0
 R("R_TKT2_Rev"): + Metohe - Mcitc - Mpyre + Mxu5pDc = 0
 R("Makgb_Transp"): + Me4pc = 0
 R("R_ENO"): + Mo2e + Makgb - Mampc = 0
 R("MlacDb_Transp"): + Mfadh2c = 0
 R("Mhb_Transp"): + Mforb = 0
 R("R_TALA"): - Mco2e - Mcitc + Mpyre + Mxu5pDc = 0
 R("R_FUM"): + Mfume - Makgb - Macb = 0
 R("R_PGL"): + Mru5pDc - Makgb - Metohc + Mdhapc = 0
 R("R_PGK_Rev"): + Mg3pc - Micitc + Mnadphc - Mnadhc = 0
 R("R_CO2t"): - Mh2oc + Mfadc = 0
 R("R_TPI_Rev"): - Mcitc + Mhe = 0
 R("R_PYRt2r_Rev"): + Mpib - Mpie + Mhb - Mru5pDc = 0
 R("R_MDH"): + Mo2c + Mnadc - Mg6pc - Mfume + Mru5pDc = 0
 R("R_EX_co2_e__Rev"): + Mh2oc - Mq8h2c = 0
 R("R_FBP"): + MlacDc - Makgb - MglcDe + Mpyre = 0
 R("R_TALA_Rev"): + Mco2e + Mcitc - Mpyre - Mxu5pDc = 0
 R("R_EX_etoh_e_"): - Mr5pc + Mfdpc = 0
 R("R_THD2"): + Ms7pc - Mpic - Mnadc + Mg6pc - 2 Mhb + 2 Mru5pDc = 0
 R("R_H2Ot"): - Makge + Makgb = 0
 R("R_CYTBD"): - M13dpgc + Mactpc - 0.5 M6pglc + 2 Mhb - 2 Mru5pDc
 + Makgb = 0
 R("R_ATPM"): + MlacDc + Mru5pDc - Makgb - Mg3pc + Micitc = 0
 R("R_TPI"): + Mcitc - Mhe = 0
 R("R_ICDHyr_Rev"): - Ms7pc + Mpic + MglcDb - Mfadc - MmalLc = 0
 R("R_EX_pi_e__Rev"): + MlacDb - Matpc = 0
 R("R_EX_glc_e_"): - Mcoac + Msuccoac = 0
 R("R_EX_h2o_e_"): - Makge + Makgc = 0
 R("Mfume_Transp"): + 2 Mh2oe = 0
 R("Msucce_Transp"): + 3 Mco2c = 0
 R("R_ME1"): + Mpie + Mnadc - Mg6pc - Mfume + Mfadc = 0
 R("R_FBA"): + Mcitc - MglcDe + Mhe = 0
 R("R_EX_lac_D_e_"): - Mq8c + Mfadh2c = 0
 R("R_H2Ot_Rev"): + Makge - Makgb = 0
 R("R_AKGDH"): + M2pgc + Mnadc - Mg6pc - Msuccb + Mfadc - MmalLc = 0
 R("R_PFL"): - Mpie + Mace - Msuccb + Mfore = 0
 R("Makge_Transp"): + 2 Mforc = 0
 R("Mfore_Transp"): + 2 Mpyrc = 0
 R("R_ADHEr"): - 2 Mnadc + 2 Mg6pc - 2 Mru5pDc + Mf6pc + Msuccb - Mfore
 = 0
 R("R_GLCpts"): + Mpie - Mo2e - Mcoac + Moaac = 0
 R("R_AKGt2r_Rev"): + Mhb - Mru5pDc + Mforc - MmalLc = 0
 R("R_O2t"): - Mo2b + M6pglc = 0
 R("R_EX_fum_e__Rev"): + Mh2oe - Macc = 0
 R("R_FUMt2_2"): - 2 Mhb + 2 Mru5pDc - Mh2oe + Macb = 0
 R("Mhe_Transp"): + 13 Mhb = 0

End
